c Sudoku solution
p cnf 729 0
166 0
188 0
219 0
225 0
276 0
322 0
347 0
355 0
374 0
458 0
552 0
573 0
585 0
596 0
629 0
643 0
665 0
711 0
764 0
828 0
853 0
923 0
932 0
946 0
656 0
998 0
748 0
845 0
862 0
678 0
251 0
961 0
154 0
242 0
149 0
234 0
268 0
363 0
569 0
467 0
631 0
541 0
444 0
426 0
121 0
524 0
727 0
759 0
957 0
839 0
172 0
195 0
775 0
979 0
984 0
736 0
915 0
814 0
886 0
435 0
413 0
612 0
117 0
133 0
316 0
338 0
518 0
537 0
877 0
891 0
471 0
381 0
399 0
687 0
694 0
283 0
297 0
782 0
793 0
489 0
492 0
